s td 201 19 370
b 1 5 36 97 141 244
b 2 11 163 263 330
b 3 13 41 49 95 146 170 283 338
b 4 29 65 75 86 158 223 237 352
b 5 27 42 108 190 205 243 312 366
b 6 21 45 61 315
b 7 48 87 188 289 350
b 8 25 56 97 117 127 143 197 239
b 9 57 62 63 116 148 154 289 340
b 10 76 93 107 123 202
b 11 83 102 122 209
b 12 88 144 204 217 247 268 285 358
b 13 115 134 151
b 14 126 130 316
b 15 19 132 137 177 192 266 349 362
b 16 152 230 307
b 17 90 166 186 355
b 18 52 178 290
b 19 110 182 216
b 20 110 216 236
b 21 184 277 286 295 366
b 22 133 189 247 282 325
b 23 173 194 324
b 24 158 208 261 278 359
b 25 15 55 102 122 209 368
b 26 211 256 364
b 27 73 218 254
b 28 150 220 367
b 29 51 150 367
b 30 72 210 221
b 31 72 210 281
b 32 84 93 255 260 274 297 305 329
b 33 66 259 265
b 34 162 225 284
b 35 126 224 293
b 36 294 299 353
b 37 128 203 313
b 38 126 273 316
b 39 212 314 327
b 40 212 314 365
b 41 135 306 336
b 42 135 306 360
b 43 120 122 215 341
b 44 9 120 122 165 215 368
b 45 256 332 364
b 46 36 97 281
b 47 38 43 200 343
b 48 6 50 139 250
b 49 51 295 367
b 50 58 105 124 207
b 51 63 256 289
b 52 84 93 306
b 53 93 107 360
b 54 93 306 360
b 55 93 213 306
b 56 133 236 247
b 57 216 236 247
b 58 216 247 358
b 59 181 216 247
b 60 158 278 365
b 61 97 210 281
b 62 295 366 367
b 63 296 303 320 330
b 64 163 303 330
b 65 256 332 350
b 66 256 289 350
b 67 181 256 289
b 68 158 314 352
b 69 158 314 365
b 70 158 213 314
b 71 2 26 39 53 81 100 136 163 167 222 291 303 304 310 317 321 354 370
b 72 25 26 39 100 136 140 163 167 179 181 264 291 303 307 310 317 328 354 370
b 73 25 26 39 80 100 140 163 179 181 195 250 264 300 303 307 310 317 328 339
b 74 35 80 118 119 134 140 147 179 181 195 224 250 264 273 300 317 326 328 339
b 75 20 35 80 104 118 119 134 140 156 179 195 224 264 300 322 326 328 339
b 76 4 20 35 104 118 119 140 156 179 195 226 264 300 322 326 328 334 339 347
b 77 4 20 64 104 119 140 156 179 195 226 264 300 322 326 328 331 334 347
b 78 4 64 101 104 119 140 156 179 195 206 300 322 326 328 331 334 347
b 79 23 64 101 119 140 156 161 179 195 206 300 322 326 331 334 347
b 80 23 64 101 119 140 156 161 191 195 206 300 326 331 334
b 81 23 64 77 101 140 156 161 191 195 206 300 326 331 334
b 82 35 118 119 134 140 147 151 179 181 195 224 250 264 273 317 326 328
b 83 35 37 134 140 147 151 179 181 264 317 328
b 84 35 37 134 140 147 151 160 179 264 328
b 85 118 119 126 151 181 224 250 273 326
b 86 112 118 119 126 151 224 273 326
b 87 80 147 265 273 300 339
b 88 66 147 265 273 300 339
b 89 25 26 39 80 100 163 195 213 250 300 303 307 310 317 339
b 90 25 26 39 80 100 195 210 213 250 300 310 339
b 91 6 26 39 80 195 210 213 250 300 310 339
b 92 6 19 80 195 213 250 300 339
b 93 6 14 19 80 195 250 300 339
b 94 6 14 19 139 250 300
b 95 6 19 139 266 300
b 96 14 19 80 195 248 339
b 97 6 39 210 213 310 314
b 98 6 213 306 310 314
b 99 25 97 210 213
b 100 25 136 140 167 179 181 264 291 307 328 354 367 370
b 101 25 27 181 367
b 102 136 140 167 179 181 230 264 291 307 354 367 370
b 103 136 167 181 230 238 291 307 354 370
b 104 46 136 181 230 238 291 307 354 370
b 105 41 46 136 181 230 238 291 307
b 106 41 46 69 136 230 238 291 307
b 107 41 69 230 252 291 307
b 108 41 230 252 283
b 109 140 179 181 230 256 367
b 110 140 181 216 230 256
b 111 2 17 26 39 53 81 100 163 167 222 291 292 303 304 310 317 321 354 370
b 112 2 17 26 39 53 73 81 100 163 222 254 291 292 303 304 310 321 354 370
b 113 2 17 26 39 53 73 81 100 163 222 254 291 303 304 308 310 321 354 370
b 114 2 12 17 26 39 53 73 81 100 163 222 254 291 303 308 310 321 354
b 115 2 12 17 26 32 39 53 78 99 100 163 222 254 291 308 310 311 321 354
b 116 2 12 26 32 39 53 78 99 100 157 163 222 251 308 310 311 321 354
b 117 2 12 30 32 39 78 99 100 157 163 222 249 251 308 310 321 354
b 118 2 10 12 30 32 78 100 157 163 231 249 251 308 310 321 354
b 119 2 10 12 30 78 157 163 231 249 251 308 310 354 369
b 120 2 10 12 30 78 157 201 231 249 251 308 310 354 369
b 121 17 26 39 81 100 163 167 292 304 310 317 337
b 122 17 81 163 167 337 353
b 123 81 163 167 294 337 353
b 124 15 55 102 122 142 168 240 368
b 125 15 94 102 113 122 142 168 240 257 368
b 126 15 22 94 102 113 122 168 214 240 257 345 368
b 127 15 22 102 113 121 122 168 187 214 240 257 279 345 368
b 128 1 9 15 22 92 98 102 113 120 121 122 168 187 240 257 279 287 345 368
b 129 1 9 15 22 92 98 102 113 120 121 122 168 240 257 287 318 345 368
b 130 1 9 15 22 98 102 113 120 121 122 168 240 257 280 287 318 368
b 131 1 9 15 22 102 113 120 121 122 168 240 280 287 298 318 368
b 132 9 22 92 98 113 120 121 122 168 187 198 279 287 368
b 133 9 22 92 98 111 113 120 122 168 198 287 368
b 134 9 79 98 111 113 120 122 168 287 368
b 135 9 79 120 122 165 168 287 368
b 136 128 200 203 344
b 137 139 169 266 300 361
b 138 41 170 252 283
b 139 124 173 225 324
b 140 6 19 192 266
b 141 52 200 203 344
b 142 33 37 52 109 200 228 267 317 344 356
b 143 33 37 52 109 200 228 267 317 356
b 144 33 52 89 109 153 199 200 228 246 267 288 335 356
b 145 85 89 153 199 228 246 267 288 335
b 146 33 52 59 89 109 125 153 176 199 200 245 246 288 335 356
b 147 16 52 59 125 176 199 245 246 356
b 148 33 59 89 109 125 153 176 200 245 288 301 335 348
b 149 59 109 125 153 175 200 245 288 301 335 348
b 150 54 59 109 125 153 175 245 288 301 335 348
b 151 33 52 109 200 228 267 290 344 356
b 152 33 38 109 200 228 267 290 344 356
b 153 37 138 317 344
b 154 37 131 138 193 317 344
b 155 68 131 138 193 219 344
b 156 124 138 225 324
b 157 124 138 185 225 241 242 272
b 158 28 124 138 185 225 241 242 272
b 159 28 124 138 162 185 225 241 242 272
b 160 28 105 124 138 162 185 241 242 272
b 161 28 96 124 180 185 225 241 242 253 262 272 351 357
b 162 96 145 180 225 241 253 262 351 357
b 163 18 28 70 96 124 174 180 185 242 253 262 271 272 351 357
b 164 8 18 70 174 242 262 271 272 351
b 165 18 28 67 70 96 124 174 180 185 253 271 333 357
b 166 18 28 67 70 96 124 174 180 253 275 333
b 167 18 28 67 70 91 96 174 180 253 275 333
b 168 27 181 366 367
b 169 21 34 90 186 234 315 323
b 170 34 90 186 234 315 323
b 171 34 186 234 302 315 323
b 172 14 19 44 129 195 248
b 173 14 19 129 195 248 339
b 174 74 85 89 153 199 228
b 175 8 18 233 242 262 271
b 176 41 46 69 136 238 269
b 177 26 39 100 171 292 304 310 317 337
b 178 35 37 140 147 160 179 229 264 328
b 179 1 9 15 22 71 102 113 120 121 122 168 280 298 318 368
b 180 1 3 7 22 60 71 103 106 121 149 183 196 227 280 298 318 319 363
b 181 1 3 7 60 71 103 106 114 121 149 183 196 227 280 298 318 319 346 363
b 182 1 3 7 60 71 103 106 114 149 172 183 196 227 280 298 318 319 346 363
b 183 3 7 47 60 71 103 106 114 149 172 183 196 227 280 298 318 319 363
b 184 3 7 31 47 103 114 149 172 227 342
b 185 3 7 31 40 47 114 149 172 227 258 342
b 186 3 7 31 40 47 114 149 172 235 258 309 342
b 187 3 7 31 40 47 114 172 232 235 258 309 342
b 188 3 7 24 31 47 114 172 232 235 258 309
b 189 1 3 7 60 71 103 106 114 149 183 196 227 270 280 298 318 319 346 363
b 190 3 7 60 71 103 106 149 155 183 196 227 270 280 298 318 319 346 363
b 191 60 106 155 183 196 270 276 319 323 346
b 192 82 106 155 183 196 270 276 302 319 323 346
b 193 82 106 164 183 196 234 270 276 302 319 323 346
b 194 34 82 106 159 164 183 196 234 276 302 319 323 346
b 195 1 3 22 60 71 103 106 113 121 149 183 227 280 298 318 319 363
b 196 1 22 60 71 103 106 113 121 149 168 183 227 280 298 318 363
b 197 1 22 60 71 103 106 113 121 168 227 280 298 318 363 368
b 198 1 22 60 71 103 113 121 122 168 280 298 318 363 368
b 199 1 22 71 102 113 120 121 122 168 280 298 318 363 368
b 200 82 131 159 164 219 276
b 201 68 131 159 164 193 219 276
1 46
2 64
3 138
4 68
5 168
6 169
7 66
8 99
9 51
10 53
11 25
12 58
13 82
14 38
15 140
16 102
17 170
18 151
19 20
20 57
21 62
22 56
23 139
24 60
25 124
26 45
27 112
28 29
29 49
30 31
31 61
32 52
33 88
34 159
35 85
36 123
37 136
38 85
39 40
40 69
41 42
42 54
43 44
44 135
45 65
46 61
47 152
48 94
49 62
50 160
51 67
52 55
53 54
54 55
55 98
56 57
57 59
58 59
59 110
60 69
61 99
62 168
63 64
64 71
65 66
66 67
67 109
68 70
69 70
70 97
71 72
71 111
72 73
72 100
73 74
73 89
74 75
74 82
74 87
75 76
76 77
77 78
78 79
79 80
80 81
82 83
82 85
83 142
83 84
84 178
85 86
87 88
89 90
90 91
90 99
91 92
91 97
92 93
93 94
93 96
94 95
95 137
95 140
96 173
97 98
100 101
100 102
101 168
102 103
102 109
103 104
104 105
105 106
106 176
106 107
107 108
108 138
109 110
111 112
111 121
112 113
113 114
114 115
115 116
116 117
117 118
118 119
119 120
121 177
121 122
122 123
124 125
125 126
126 127
127 128
128 132
128 129
129 130
130 131
131 179
132 133
133 134
134 135
136 141
139 156
141 142
142 151
142 153
142 143
143 144
144 145
144 146
145 174
146 147
146 148
148 149
149 150
151 152
153 156
153 154
154 155
155 201
156 157
157 158
158 159
158 161
159 160
161 162
161 163
163 164
163 165
164 175
165 166
166 167
169 170
170 171
171 194
172 173
179 199
180 181
180 195
181 182
181 189
182 183
183 184
184 185
185 186
186 187
187 188
189 190
190 191
191 192
192 193
193 194
194 200
195 196
196 197
197 198
198 199
200 201
